c Output_time 26.03.2020 18:13:29_+0100 1585242809966468618
c ** Program information **
c program_name                          "QBRG_debug"
c version                               "0.3.20"
c date                                  "25.3.2020"
c gid_id                                "673970833836058123f633335630c185360d632e"
c author                                "Oliver Kullmann"
c url                                   "https://github.com/OKullmann/oklibrary/blob/master/Satisfiability/Transformers/Generators/Random/QBRG.cpp"
c ** Machine information **
c machine_name                          "chyna-Lenovo-G50-70"
c bogomips                              3791.08
c ** Compilation information **
c compiler_version                      "g++ 7.5.0"
c compilation_date                      "Mar_26_2020 11:16:30"
c compilation_options                   "--std=c++17 -pedantic -fmax-errors=5 -Wall -Wextra -g -D_GLIBCXX_DEBUG"
c NDEBUG                                0
c OPTIMIZE                              0
c ** Parameters **
c command-line                          "./QBRG_debug" "e40 a40 40" "555*1,1|2-2,1|3-3,1" "" "1,t" ""
c output                                "QuBlRaGe_120_555_1585242809966310565.qdimacs"
c options                               "filtered,renamed"
c num_quantifier_blocks                 3
c  quantifier_blocks                    1:e1-40 2:a41-80 3:e81-120
c num_clause-blocks                     1
c  clause-blocks                        555 * {1-40,1,1/2} | {41-80,1,1/2} | {81-120,1,1/2}
c num_e-seeds                           30+2=32
c  e-seeds                              1 0 1 0 4 120 2 40 1 40 0 40 1 555 3 1 1 1 1 2 2 2 1 1 2 3 3 1 1 2 1 1585242809966309732
p cnf 120 555
e 1 2 3 4 5 6 7 8 9 10 11 12 13 14 15 16 17 18 19 20 21 22 23 24 25 26 27 28 29 30 31 32 33 34 35 36 37 38 39 40 0
a 41 42 43 44 45 46 47 48 49 50 51 52 53 54 55 56 57 58 59 60 61 62 63 64 65 66 67 68 69 70 71 72 73 74 75 76 77 78 79 80 0
e 81 82 83 84 85 86 87 88 89 90 91 92 93 94 95 96 97 98 99 100 101 102 103 104 105 106 107 108 109 110 111 112 113 114 115 116 117 118 119 120 0
32 43 -81 0
24 62 -81 0
-10 64 -81 0
19 69 -81 0
29 72 -81 0
-20 -73 -81 0
20 73 -81 0
-9 76 -81 0
-15 80 -81 0
9 -48 81 0
17 52 81 0
16 53 81 0
-31 54 81 0
5 55 81 0
-33 -66 81 0
-37 66 81 0
-15 -80 81 0
40 80 81 0
13 -41 -82 0
-9 45 -82 0
8 -50 -82 0
38 -50 -82 0
-20 57 -82 0
20 58 -82 0
-16 -60 -82 0
-2 -74 -82 0
9 -74 -82 0
-35 78 -82 0
-37 -79 -82 0
37 49 82 0
34 50 82 0
39 62 82 0
-15 -63 82 0
12 -75 82 0
-19 -77 82 0
15 46 -83 0
-27 46 -83 0
3 -47 -83 0
-28 -52 -83 0
3 -53 -83 0
-2 65 -83 0
-27 65 -83 0
31 -44 83 0
31 53 83 0
26 63 83 0
-35 -68 83 0
29 -44 -84 0
28 -48 -84 0
-31 48 -84 0
-8 -51 -84 0
-10 -52 -84 0
6 -55 -84 0
40 -63 -84 0
7 -77 -84 0
-4 -54 84 0
7 -54 84 0
11 61 84 0
37 -63 84 0
-38 65 84 0
4 -66 84 0
30 -53 -85 0
5 54 -85 0
34 61 -85 0
2 67 -85 0
-4 -54 85 0
-38 -54 85 0
31 -60 85 0
-14 70 85 0
-1 -72 85 0
-7 -79 85 0
6 47 -86 0
-33 -53 -86 0
25 -74 -86 0
21 41 86 0
21 -43 86 0
15 -50 86 0
-4 -79 86 0
-19 -43 -87 0
-29 -43 -87 0
-39 49 -87 0
-27 50 -87 0
-1 -54 -87 0
-1 -56 -87 0
27 67 -87 0
-15 -68 -87 0
-27 69 -87 0
-26 -71 -87 0
-40 71 -87 0
3 -74 -87 0
35 75 -87 0
-12 41 87 0
37 44 87 0
36 -47 87 0
-39 -51 87 0
-40 52 87 0
-17 57 87 0
-6 61 87 0
11 63 87 0
-24 -54 -88 0
-3 57 -88 0
5 -59 -88 0
-25 63 -88 0
-34 -76 -88 0
-16 77 -88 0
19 -43 88 0
21 -48 88 0
-9 -55 88 0
33 58 88 0
27 -62 88 0
37 67 88 0
22 70 88 0
28 72 88 0
-15 76 88 0
-14 -77 88 0
-35 77 88 0
2 -79 88 0
31 -41 -89 0
-29 41 -89 0
-23 -49 -89 0
-14 -54 -89 0
20 54 -89 0
8 58 -89 0
24 63 -89 0
-34 -68 -89 0
-2 69 -89 0
1 -79 -89 0
-26 51 89 0
-13 56 89 0
26 -62 89 0
5 -67 89 0
6 -76 89 0
33 -60 -90 0
30 72 -90 0
-15 -75 -90 0
22 -43 90 0
-6 -45 90 0
-21 51 90 0
23 51 90 0
-14 60 90 0
-30 -64 90 0
38 -66 90 0
-35 -42 -91 0
-18 42 -91 0
8 48 -91 0
-21 -50 -91 0
13 -52 -91 0
8 58 -91 0
6 66 -91 0
-29 -75 -91 0
-34 -75 -91 0
5 -76 -91 0
-21 76 -91 0
21 -41 91 0
-13 -58 91 0
14 61 91 0
23 -64 91 0
5 72 91 0
-18 -75 91 0
23 79 91 0
-16 -80 91 0
2 46 -92 0
10 54 -92 0
-11 -59 -92 0
24 70 -92 0
-31 61 92 0
-36 -74 92 0
6 -80 92 0
-28 44 -93 0
32 54 -93 0
2 -60 -93 0
-5 -76 -93 0
-28 42 93 0
2 -43 93 0
36 -45 93 0
-24 -48 93 0
-36 51 93 0
14 -54 93 0
39 54 93 0
-24 -55 93 0
-33 -65 93 0
13 65 93 0
-33 65 93 0
40 72 93 0
32 -73 93 0
25 -78 93 0
26 44 -94 0
-29 44 -94 0
-17 -60 -94 0
19 75 -94 0
21 76 -94 0
33 76 -94 0
-30 -41 94 0
24 45 94 0
-23 -69 94 0
-33 -71 94 0
15 72 94 0
-29 -73 94 0
36 -43 -95 0
14 -46 -95 0
27 -67 -95 0
36 -70 -95 0
16 74 -95 0
32 -78 -95 0
6 57 95 0
32 -66 95 0
-25 -68 95 0
-16 -74 95 0
22 50 -96 0
28 -66 -96 0
-33 67 -96 0
-22 -73 -96 0
28 -76 -96 0
-31 -50 96 0
7 55 96 0
-36 61 96 0
22 65 96 0
12 -66 96 0
3 -67 96 0
-33 -67 96 0
1 70 96 0
-7 -75 96 0
-2 76 96 0
-3 46 -97 0
37 -49 -97 0
11 -51 -97 0
39 -53 -97 0
-30 56 -97 0
-12 57 -97 0
3 64 -97 0
-3 -68 -97 0
22 76 -97 0
20 -79 -97 0
26 79 -97 0
9 45 97 0
39 49 97 0
32 -56 97 0
-27 -59 97 0
26 59 97 0
11 62 97 0
-40 79 97 0
15 53 -98 0
33 -57 -98 0
30 57 -98 0
25 -58 -98 0
39 -61 -98 0
-31 71 -98 0
23 78 -98 0
8 -44 98 0
-28 -45 98 0
40 -52 98 0
-37 -54 98 0
-21 54 98 0
32 -56 98 0
-33 56 98 0
3 58 98 0
-20 61 98 0
-40 61 98 0
-13 65 98 0
12 68 98 0
20 73 98 0
4 -74 98 0
-30 79 98 0
21 -80 98 0
-26 -44 -99 0
-26 60 -99 0
-9 -64 -99 0
-4 -66 -99 0
-23 -73 -99 0
4 44 99 0
1 -47 99 0
20 52 99 0
33 54 99 0
-38 62 99 0
-8 67 99 0
12 69 99 0
-4 -77 99 0
31 42 -100 0
8 46 -100 0
5 -63 -100 0
19 -67 -100 0
22 76 -100 0
-3 -77 -100 0
35 -50 100 0
39 -57 100 0
-28 -58 100 0
-38 -58 100 0
-33 78 100 0
8 43 -101 0
-30 46 -101 0
28 -55 -101 0
-15 59 -101 0
19 -62 -101 0
-15 70 -101 0
10 77 -101 0
-10 46 101 0
34 47 101 0
-33 52 101 0
-33 -58 101 0
-3 -44 -102 0
-5 52 -102 0
-34 54 -102 0
39 -59 -102 0
26 -60 -102 0
-22 -67 -102 0
17 -77 -102 0
10 -44 102 0
30 46 102 0
-40 47 102 0
-26 -51 102 0
-23 54 102 0
16 65 102 0
5 71 102 0
-32 -76 102 0
-35 76 102 0
-25 44 -103 0
-25 45 -103 0
-36 48 -103 0
-2 -53 -103 0
3 -57 -103 0
31 -61 -103 0
30 63 -103 0
6 70 -103 0
-28 -73 -103 0
-25 79 -103 0
38 -41 103 0
-4 47 103 0
14 51 103 0
-25 62 103 0
6 -67 103 0
-30 77 103 0
5 78 103 0
25 80 103 0
2 42 -104 0
-11 52 -104 0
-36 60 -104 0
29 -73 -104 0
37 -75 -104 0
-29 76 -104 0
-18 -77 -104 0
17 69 104 0
14 -75 104 0
27 -77 104 0
-2 44 -105 0
17 -53 -105 0
-9 -54 -105 0
-36 -59 -105 0
12 62 -105 0
-32 69 -105 0
-20 71 -105 0
37 -76 -105 0
-25 -77 -105 0
-39 41 105 0
-12 46 105 0
5 60 105 0
-23 -61 105 0
7 -63 105 0
4 -64 105 0
30 73 105 0
9 77 105 0
12 -42 -106 0
-15 -48 -106 0
25 -62 -106 0
20 67 -106 0
-20 -43 106 0
28 -46 106 0
33 49 106 0
-5 -50 106 0
-17 50 106 0
36 61 106 0
-25 64 106 0
-23 76 106 0
2 -43 -107 0
38 47 -107 0
31 -51 -107 0
22 60 -107 0
-39 52 107 0
32 58 107 0
3 59 107 0
-19 -64 107 0
-38 -72 107 0
12 76 107 0
8 45 -108 0
-23 -50 -108 0
-5 -56 -108 0
21 56 -108 0
-10 -47 108 0
23 -51 108 0
24 -52 108 0
-31 -56 108 0
-11 -63 108 0
24 -64 108 0
-30 68 108 0
4 -70 108 0
-1 -72 108 0
23 72 108 0
18 -42 -109 0
6 -47 -109 0
33 56 -109 0
26 -59 -109 0
-10 62 -109 0
19 68 -109 0
-30 -70 -109 0
-29 79 -109 0
25 -80 -109 0
-7 42 109 0
25 50 109 0
18 -56 109 0
28 59 109 0
32 -61 109 0
-5 75 109 0
20 79 109 0
18 49 -110 0
30 52 -110 0
34 -54 -110 0
31 -58 -110 0
37 -60 -110 0
-27 61 -110 0
2 63 -110 0
1 -66 -110 0
25 -76 -110 0
-34 -42 110 0
5 -51 110 0
-13 55 110 0
-7 61 110 0
10 64 110 0
33 80 110 0
20 49 -111 0
19 -54 -111 0
32 -71 -111 0
35 -78 -111 0
-18 78 -111 0
-33 -42 111 0
-6 -56 111 0
31 -59 111 0
-13 -41 -112 0
-25 -44 -112 0
-24 -47 -112 0
5 -48 -112 0
-29 50 -112 0
1 -68 -112 0
25 79 -112 0
18 45 112 0
-30 45 112 0
-26 -63 112 0
-5 66 112 0
-18 -80 112 0
5 -43 -113 0
26 -49 -113 0
14 50 -113 0
35 51 -113 0
20 -57 -113 0
-22 -60 -113 0
6 -68 -113 0
-33 68 -113 0
-36 -69 -113 0
25 80 -113 0
24 44 113 0
-10 45 113 0
-19 -46 113 0
-15 -59 113 0
-39 -59 113 0
-35 -61 113 0
19 -69 113 0
22 -75 113 0
-20 -76 113 0
1 -43 -114 0
27 -46 -114 0
-33 -48 -114 0
-39 -52 -114 0
-8 -55 -114 0
39 68 -114 0
-38 -70 -114 0
5 -71 -114 0
-20 -78 -114 0
17 52 114 0
-17 -61 114 0
-36 -67 114 0
-31 -74 114 0
-29 -42 -115 0
10 -45 -115 0
-32 -48 -115 0
-27 60 -115 0
25 66 -115 0
-36 66 -115 0
-35 69 -115 0
4 71 -115 0
-36 -48 115 0
-7 52 115 0
7 63 115 0
-8 49 -116 0
-9 65 -116 0
21 70 -116 0
-35 75 -116 0
-5 47 116 0
-12 -49 116 0
-17 57 116 0
-6 -58 116 0
22 61 116 0
38 -67 116 0
-15 -68 116 0
-13 -69 116 0
27 74 116 0
7 -79 116 0
-23 43 -117 0
29 -47 -117 0
-2 -48 -117 0
-39 -48 -117 0
19 50 -117 0
19 -57 -117 0
-27 70 -117 0
-13 -73 -117 0
19 -42 117 0
-33 53 117 0
-7 -63 117 0
33 -69 117 0
-32 -75 117 0
-19 -42 -118 0
5 42 -118 0
-19 -44 -118 0
-33 -51 -118 0
11 53 -118 0
2 -59 -118 0
37 -71 -118 0
23 71 -118 0
14 -74 -118 0
-27 -74 -118 0
10 -41 118 0
-36 48 118 0
-34 -54 118 0
10 -60 118 0
-38 60 118 0
7 73 118 0
33 79 118 0
-15 -53 -119 0
-40 -56 -119 0
12 62 -119 0
1 68 -119 0
31 70 -119 0
-3 71 -119 0
30 75 -119 0
-22 -46 119 0
-32 -46 119 0
-18 47 119 0
9 -48 119 0
-13 -66 119 0
31 -76 119 0
25 77 119 0
-17 -44 -120 0
24 -51 -120 0
19 -68 -120 0
-15 -78 -120 0
-26 -42 120 0
32 63 120 0
-5 77 120 0
20 -80 120 0
